benchmark/results/graph__15-1000-0.10-02_10/graph__15-1000-0.10-02_10_QuintonOs_Benders_primal_sub.lp
\ This file has been generated by DOcplex
\ ENCODING=ISO-8859-1
\Problem name: Quinton Bounded Benders_primal_sub

Maximize
 obj: tau
Subject To
 c1: tau <= 0.000898472597
 c2: y_a0_proc_0 + y_a0_proc_1 - tau = 0
 c3: y_a0_proc_0 <= 1
 c4: y_a0_proc_1 <= 0
 c5: tau <= 0.000995024876
 c6: y_a1_proc_0 - tau = 0
 c7: y_a1_proc_0 <= 1
 c8: tau <= 0.000916590284
 c9: y_a2_proc_0 + y_a2_proc_1 - tau = 0
 c10: y_a2_proc_0 <= 1
 c11: y_a2_proc_1 <= 0
 c12: tau <= 0.001184834123
 c13: y_a3_proc_0 + y_a3_proc_1 - tau = 0
 c14: y_a3_proc_0 <= 0
 c15: y_a3_proc_1 <= 1
 c16: tau <= 0.000877192982
 c17: y_a4_proc_1 - tau = 0
 c18: y_a4_proc_1 <= 1
 c19: tau <= 0.001256281407
 c20: y_a5_proc_0 - tau = 0
 c21: y_a5_proc_0 <= 1
 c22: tau <= 0.000942507069
 c23: y_a6_proc_1 - tau = 0
 c24: y_a6_proc_1 <= 1
 c25: tau <= 0.001157407407
 c26: y_a7_proc_0 + y_a7_proc_1 - tau = 0
 c27: y_a7_proc_0 <= 1
 c28: y_a7_proc_1 <= 0
 c29: tau <= 0.001076426265
 c30: y_a8_proc_0 + y_a8_proc_1 - tau = 0
 c31: y_a8_proc_0 <= 0
 c32: y_a8_proc_1 <= 1
 c33: tau <= 0.001089324619
 c34: y_a9_proc_0 - tau = 0
 c35: y_a9_proc_0 <= 1
 c36: tau <= 0.001006036217
 c37: y_a10_proc_1 - tau = 0
 c38: y_a10_proc_1 <= 1
 c39: tau <= 0.000943396226
 c40: y_a11_proc_1 - tau = 0
 c41: y_a11_proc_1 <= 1
 c42: tau <= 0.001721170396
 c43: y_a12_proc_1 - tau = 0
 c44: y_a12_proc_1 <= 1
 c45: tau <= 0.001164144354
 c46: y_a13_proc_1 - tau = 0
 c47: y_a13_proc_1 <= 1
 c48: tau <= 0.001023541453
 c49: y_a14_proc_0 + y_a14_proc_1 - tau = 0
 c50: y_a14_proc_0 <= 0
 c51: y_a14_proc_1 <= 1
 c52: u_a1 - u_a0 - 1113 y_a0_proc_0 - 1000 y_a0_proc_1 >= -1
 c53: u_a0 - u_a2 - 1091 y_a2_proc_0 - 1106 y_a2_proc_1 >= 0
 c54: u_a3 - u_a0 - 1113 y_a0_proc_0 - 1000 y_a0_proc_1 >= -1
 c55: u_a4 - u_a1 - 1005 y_a1_proc_0 >= -1
 c56: u_a5 - u_a3 - 1123 y_a3_proc_0 - 844 y_a3_proc_1 >= 0
 c57: u_a2 - u_a6 - 1061 y_a6_proc_1 >= 0
 c58: u_a4 - u_a7 - 864 y_a7_proc_0 - 1061 y_a7_proc_1 >= 0
 c59: u_a8 - u_a1 - 1005 y_a1_proc_0 >= 0
 c60: u_a9 - u_a4 - 1140 y_a4_proc_1 >= 0
 c61: u_a7 - u_a10 - 994 y_a10_proc_1 >= 0
 c62: u_a9 - u_a11 - 1060 y_a11_proc_1 >= 0
 c63: u_a12 - u_a9 - 918 y_a9_proc_0 >= 0
 c64: u_a0 - u_a13 - 859 y_a13_proc_1 >= 0
 c65: u_a14 - u_a8 - 1048 y_a8_proc_0 - 929 y_a8_proc_1 >= 0
 c66: u_a13 - u_a5 - 796 y_a5_proc_0 >= 0
 c67: u_a3 - u_a14 - 1129 y_a14_proc_0 - 977 y_a14_proc_1 >= 0
 c68: u_a0 - u_a3 - 1123 y_a3_proc_0 - 844 y_a3_proc_1 >= 0
 c69: - 1061 y_a6_proc_1 >= -1
 c70: u_a10 - u_a7 - 864 y_a7_proc_0 - 1061 y_a7_proc_1 >= -1
 c71: u_a6 - u_a3 - 1123 y_a3_proc_0 - 844 y_a3_proc_1 >= 0
 c72: u_a1 - u_a12 - 581 y_a12_proc_1 >= -1
 c73: u_a11 - u_a1 - 1005 y_a1_proc_0 >= 0
 c74: u_a9 - u_a7 - 864 y_a7_proc_0 - 1061 y_a7_proc_1 >= 0
 c75: u_a10 - u_a12 - 581 y_a12_proc_1 >= -1
 c76: u_a11 - u_a0 - 1113 y_a0_proc_0 - 1000 y_a0_proc_1 >= 0
 c77: - 1060 y_a11_proc_1 >= -1
 c78: u_a1 - u_a0 - 1113 y_a0_proc_0 >= -1
 c79: u_a0 - u_a1 - 1005 y_a1_proc_0 >= 0
 c80: u_a2 - u_a0 - 1113 y_a0_proc_0 >= -1
 c81: u_a2 - u_a0 - 1000 y_a0_proc_1 >= -2281
 c82: u_a0 - u_a2 - 1091 y_a2_proc_0 >= 0
 c83: u_a0 - u_a2 - 1106 y_a2_proc_1 >= -2280
 c84: u_a3 - u_a0 - 1113 y_a0_proc_0 >= -1157
 c85: u_a3 - u_a0 - 1000 y_a0_proc_1 >= -1157
 c86: u_a0 - u_a3 - 1123 y_a3_proc_0 >= -1124
 c87: u_a0 - u_a3 - 844 y_a3_proc_1 >= -1124
 c88: u_a4 - u_a0 - 1000 y_a0_proc_1 >= -1157
 c89: u_a0 - u_a4 - 1140 y_a4_proc_1 >= -1124
 c90: u_a5 - u_a0 - 1113 y_a0_proc_0 >= -1
 c91: u_a0 - u_a5 - 796 y_a5_proc_0 >= 0
 c92: u_a6 - u_a0 - 1000 y_a0_proc_1 >= -1157
 c93: u_a0 - u_a6 - 1061 y_a6_proc_1 >= -1124
 c94: u_a7 - u_a0 - 1113 y_a0_proc_0 >= -1
 c95: u_a7 - u_a0 - 1000 y_a0_proc_1 >= -2281
 c96: u_a0 - u_a7 - 864 y_a7_proc_0 >= 0
 c97: u_a0 - u_a7 - 1061 y_a7_proc_1 >= -2280
 c98: u_a8 - u_a0 - 1113 y_a0_proc_0 >= -1157
 c99: u_a8 - u_a0 - 1000 y_a0_proc_1 >= -1157
 c100: u_a0 - u_a8 - 1048 y_a8_proc_0 >= -1124
 c101: u_a0 - u_a8 - 929 y_a8_proc_1 >= -1124
 c102: u_a9 - u_a0 - 1113 y_a0_proc_0 >= 0
 c103: u_a0 - u_a9 - 918 y_a9_proc_0 >= -1
 c104: u_a10 - u_a0 - 1000 y_a0_proc_1 >= -1157
 c105: u_a0 - u_a10 - 994 y_a10_proc_1 >= -1124
 c106: u_a11 - u_a0 - 1000 y_a0_proc_1 >= -1157
 c107: u_a0 - u_a11 - 1060 y_a11_proc_1 >= -1124
 c108: u_a12 - u_a0 - 1000 y_a0_proc_1 >= -1157
 c109: u_a0 - u_a12 - 581 y_a12_proc_1 >= -1124
 c110: u_a13 - u_a0 - 1000 y_a0_proc_1 >= -1157
 c111: u_a0 - u_a13 - 859 y_a13_proc_1 >= -1124
 c112: u_a14 - u_a0 - 1113 y_a0_proc_0 >= -1157
 c113: u_a14 - u_a0 - 1000 y_a0_proc_1 >= -1157
 c114: u_a0 - u_a14 - 1129 y_a14_proc_0 >= -1124
 c115: u_a0 - u_a14 - 977 y_a14_proc_1 >= -1124
 c116: u_a2 - u_a1 - 1005 y_a1_proc_0 >= 0
 c117: u_a1 - u_a2 - 1091 y_a2_proc_0 >= -1
 c118: u_a3 - u_a1 - 1005 y_a1_proc_0 >= -1157
 c119: u_a1 - u_a3 - 1123 y_a3_proc_0 >= -1124
 c120: u_a5 - u_a1 - 1005 y_a1_proc_0 >= 0
 c121: u_a1 - u_a5 - 796 y_a5_proc_0 >= -1
 c122: u_a7 - u_a1 - 1005 y_a1_proc_0 >= 0
 c123: u_a1 - u_a7 - 864 y_a7_proc_0 >= -1
 c124: u_a8 - u_a1 - 1005 y_a1_proc_0 >= -1157
 c125: u_a1 - u_a8 - 1048 y_a8_proc_0 >= -1124
 c126: u_a9 - u_a1 - 1005 y_a1_proc_0 >= 0
 c127: u_a1 - u_a9 - 918 y_a9_proc_0 >= -1
 c128: u_a14 - u_a1 - 1005 y_a1_proc_0 >= -1157
 c129: u_a1 - u_a14 - 1129 y_a14_proc_0 >= -1124
 c130: u_a3 - u_a2 - 1091 y_a2_proc_0 >= -1157
 c131: u_a3 - u_a2 - 1106 y_a2_proc_1 >= -1157
 c132: u_a2 - u_a3 - 1123 y_a3_proc_0 >= -1124
 c133: u_a2 - u_a3 - 844 y_a3_proc_1 >= -1124
 c134: u_a4 - u_a2 - 1106 y_a2_proc_1 >= -1157
 c135: u_a2 - u_a4 - 1140 y_a4_proc_1 >= -1124
 c136: u_a5 - u_a2 - 1091 y_a2_proc_0 >= -1
 c137: u_a2 - u_a5 - 796 y_a5_proc_0 >= 0
 c138: u_a6 - u_a2 - 1106 y_a2_proc_1 >= -1157
 c139: u_a2 - u_a6 - 1061 y_a6_proc_1 >= -1124
 c140: u_a7 - u_a2 - 1091 y_a2_proc_0 >= -1
 c141: u_a7 - u_a2 - 1106 y_a2_proc_1 >= -2281
 c142: u_a2 - u_a7 - 864 y_a7_proc_0 >= 0
 c143: u_a2 - u_a7 - 1061 y_a7_proc_1 >= -2280
 c144: u_a8 - u_a2 - 1091 y_a2_proc_0 >= -1157
 c145: u_a8 - u_a2 - 1106 y_a2_proc_1 >= -1157
 c146: u_a2 - u_a8 - 1048 y_a8_proc_0 >= -1124
 c147: u_a2 - u_a8 - 929 y_a8_proc_1 >= -1124
 c148: u_a9 - u_a2 - 1091 y_a2_proc_0 >= 0
 c149: u_a2 - u_a9 - 918 y_a9_proc_0 >= -1
 c150: u_a10 - u_a2 - 1106 y_a2_proc_1 >= -1157
 c151: u_a2 - u_a10 - 994 y_a10_proc_1 >= -1124
 c152: u_a11 - u_a2 - 1106 y_a2_proc_1 >= -1157
 c153: u_a2 - u_a11 - 1060 y_a11_proc_1 >= -1124
 c154: u_a12 - u_a2 - 1106 y_a2_proc_1 >= -1157
 c155: u_a2 - u_a12 - 581 y_a12_proc_1 >= -1124
 c156: u_a13 - u_a2 - 1106 y_a2_proc_1 >= -1124
 c157: u_a2 - u_a13 - 859 y_a13_proc_1 >= -1157
 c158: u_a14 - u_a2 - 1091 y_a2_proc_0 >= -1157
 c159: u_a14 - u_a2 - 1106 y_a2_proc_1 >= -1157
 c160: u_a2 - u_a14 - 1129 y_a14_proc_0 >= -1124
 c161: u_a2 - u_a14 - 977 y_a14_proc_1 >= -1124
 c162: u_a4 - u_a3 - 844 y_a3_proc_1 >= 0
 c163: u_a3 - u_a4 - 1140 y_a4_proc_1 >= -1
 c164: u_a5 - u_a3 - 1123 y_a3_proc_0 >= -1157
 c165: u_a3 - u_a5 - 796 y_a5_proc_0 >= -1124
 c166: u_a6 - u_a3 - 844 y_a3_proc_1 >= 0
 c167: u_a3 - u_a6 - 1061 y_a6_proc_1 >= -1
 c168: u_a7 - u_a3 - 1123 y_a3_proc_0 >= -1124
 c169: u_a7 - u_a3 - 844 y_a3_proc_1 >= -1124
 c170: u_a3 - u_a7 - 864 y_a7_proc_0 >= -1157
 c171: u_a3 - u_a7 - 1061 y_a7_proc_1 >= -1157
 c172: u_a8 - u_a3 - 1123 y_a3_proc_0 >= -2281
 c173: u_a8 - u_a3 - 844 y_a3_proc_1 >= -1
 c174: u_a3 - u_a8 - 1048 y_a8_proc_0 >= -2280
 c175: u_a3 - u_a8 - 929 y_a8_proc_1 >= 0
 c176: u_a9 - u_a3 - 1123 y_a3_proc_0 >= -1157
 c177: u_a3 - u_a9 - 918 y_a9_proc_0 >= -1124
 c178: u_a10 - u_a3 - 844 y_a3_proc_1 >= -1
 c179: u_a3 - u_a10 - 994 y_a10_proc_1 >= 0
 c180: u_a11 - u_a3 - 844 y_a3_proc_1 >= 0
 c181: u_a3 - u_a11 - 1060 y_a11_proc_1 >= -1
 c182: u_a12 - u_a3 - 844 y_a3_proc_1 >= 0
 c183: u_a3 - u_a12 - 581 y_a12_proc_1 >= -1
 c184: u_a13 - u_a3 - 844 y_a3_proc_1 >= 0
 c185: u_a3 - u_a13 - 859 y_a13_proc_1 >= -1
 c186: u_a14 - u_a3 - 1123 y_a3_proc_0 >= -2281
 c187: u_a14 - u_a3 - 844 y_a3_proc_1 >= -1
 c188: u_a3 - u_a14 - 1129 y_a14_proc_0 >= -2280
 c189: u_a3 - u_a14 - 977 y_a14_proc_1 >= 0
 c190: u_a6 - u_a4 - 1140 y_a4_proc_1 >= -1
 c191: u_a4 - u_a6 - 1061 y_a6_proc_1 >= 0
 c192: u_a7 - u_a4 - 1140 y_a4_proc_1 >= -1157
 c193: u_a4 - u_a7 - 1061 y_a7_proc_1 >= -1124
 c194: u_a8 - u_a4 - 1140 y_a4_proc_1 >= -1
 c195: u_a4 - u_a8 - 929 y_a8_proc_1 >= 0
 c196: u_a10 - u_a4 - 1140 y_a4_proc_1 >= -1
 c197: u_a4 - u_a10 - 994 y_a10_proc_1 >= 0
 c198: u_a11 - u_a4 - 1140 y_a4_proc_1 >= 0
 c199: u_a4 - u_a11 - 1060 y_a11_proc_1 >= -1
 c200: u_a12 - u_a4 - 1140 y_a4_proc_1 >= 0
 c201: u_a4 - u_a12 - 581 y_a12_proc_1 >= -1
 c202: u_a13 - u_a4 - 1140 y_a4_proc_1 >= -1
 c203: u_a4 - u_a13 - 859 y_a13_proc_1 >= 0
 c204: u_a14 - u_a4 - 1140 y_a4_proc_1 >= -1
 c205: u_a4 - u_a14 - 977 y_a14_proc_1 >= 0
 c206: u_a7 - u_a5 - 796 y_a5_proc_0 >= -1
 c207: u_a5 - u_a7 - 864 y_a7_proc_0 >= 0
 c208: u_a8 - u_a5 - 796 y_a5_proc_0 >= -1157
 c209: u_a5 - u_a8 - 1048 y_a8_proc_0 >= -1124
 c210: u_a9 - u_a5 - 796 y_a5_proc_0 >= 0
 c211: u_a5 - u_a9 - 918 y_a9_proc_0 >= -1
 c212: u_a14 - u_a5 - 796 y_a5_proc_0 >= -1157
 c213: u_a5 - u_a14 - 1129 y_a14_proc_0 >= -1124
 c214: u_a7 - u_a6 - 1061 y_a6_proc_1 >= -1157
 c215: u_a6 - u_a7 - 1061 y_a7_proc_1 >= -1124
 c216: u_a8 - u_a6 - 1061 y_a6_proc_1 >= -1
 c217: u_a6 - u_a8 - 929 y_a8_proc_1 >= 0
 c218: u_a10 - u_a6 - 1061 y_a6_proc_1 >= -1
 c219: u_a6 - u_a10 - 994 y_a10_proc_1 >= 0
 c220: u_a11 - u_a6 - 1061 y_a6_proc_1 >= 0
 c221: u_a6 - u_a11 - 1060 y_a11_proc_1 >= -1
 c222: u_a12 - u_a6 - 1061 y_a6_proc_1 >= 0
 c223: u_a6 - u_a12 - 581 y_a12_proc_1 >= -1
 c224: u_a13 - u_a6 - 1061 y_a6_proc_1 >= 0
 c225: u_a6 - u_a13 - 859 y_a13_proc_1 >= -1
 c226: u_a14 - u_a6 - 1061 y_a6_proc_1 >= -1
 c227: u_a6 - u_a14 - 977 y_a14_proc_1 >= 0
 c228: u_a8 - u_a7 - 864 y_a7_proc_0 >= -1124
 c229: u_a8 - u_a7 - 1061 y_a7_proc_1 >= -1124
 c230: u_a7 - u_a8 - 1048 y_a8_proc_0 >= -1157
 c231: u_a7 - u_a8 - 929 y_a8_proc_1 >= -1157
 c232: u_a9 - u_a7 - 864 y_a7_proc_0 >= 0
 c233: u_a7 - u_a9 - 918 y_a9_proc_0 >= -1
 c234: u_a10 - u_a7 - 1061 y_a7_proc_1 >= -1157
 c235: u_a7 - u_a10 - 994 y_a10_proc_1 >= -1124
 c236: u_a11 - u_a7 - 1061 y_a7_proc_1 >= -1157
 c237: u_a7 - u_a11 - 1060 y_a11_proc_1 >= -1124
 c238: u_a12 - u_a7 - 1061 y_a7_proc_1 >= -1157
 c239: u_a7 - u_a12 - 581 y_a12_proc_1 >= -1124
 c240: u_a13 - u_a7 - 1061 y_a7_proc_1 >= -1157
 c241: u_a7 - u_a13 - 859 y_a13_proc_1 >= -1124
 c242: u_a14 - u_a7 - 864 y_a7_proc_0 >= -1157
 c243: u_a14 - u_a7 - 1061 y_a7_proc_1 >= -1157
 c244: u_a7 - u_a14 - 1129 y_a14_proc_0 >= -1124
 c245: u_a7 - u_a14 - 977 y_a14_proc_1 >= -1124
 c246: u_a9 - u_a8 - 1048 y_a8_proc_0 >= -1157
 c247: u_a8 - u_a9 - 918 y_a9_proc_0 >= -1124
 c248: u_a10 - u_a8 - 929 y_a8_proc_1 >= -1
 c249: u_a8 - u_a10 - 994 y_a10_proc_1 >= 0
 c250: u_a11 - u_a8 - 929 y_a8_proc_1 >= 0
 c251: u_a8 - u_a11 - 1060 y_a11_proc_1 >= -1
 c252: u_a12 - u_a8 - 929 y_a8_proc_1 >= 0
 c253: u_a8 - u_a12 - 581 y_a12_proc_1 >= -1
 c254: u_a13 - u_a8 - 929 y_a8_proc_1 >= 0
 c255: u_a8 - u_a13 - 859 y_a13_proc_1 >= -1
 c256: u_a14 - u_a8 - 1048 y_a8_proc_0 >= -2280
 c257: u_a14 - u_a8 - 929 y_a8_proc_1 >= 0
 c258: u_a8 - u_a14 - 1129 y_a14_proc_0 >= -2281
 c259: u_a8 - u_a14 - 977 y_a14_proc_1 >= -1
 c260: u_a14 - u_a9 - 918 y_a9_proc_0 >= -1157
 c261: u_a9 - u_a14 - 1129 y_a14_proc_0 >= -1124
 c262: u_a11 - u_a10 - 994 y_a10_proc_1 >= 0
 c263: u_a10 - u_a11 - 1060 y_a11_proc_1 >= -1
 c264: u_a12 - u_a10 - 994 y_a10_proc_1 >= 0
 c265: u_a10 - u_a12 - 581 y_a12_proc_1 >= -1
 c266: u_a13 - u_a10 - 994 y_a10_proc_1 >= 0
 c267: u_a10 - u_a13 - 859 y_a13_proc_1 >= -1
 c268: u_a14 - u_a10 - 994 y_a10_proc_1 >= 0
 c269: u_a10 - u_a14 - 977 y_a14_proc_1 >= -1
 c270: u_a12 - u_a11 - 1060 y_a11_proc_1 >= 0
 c271: u_a11 - u_a12 - 581 y_a12_proc_1 >= -1
 c272: u_a13 - u_a11 - 1060 y_a11_proc_1 >= -1
 c273: u_a11 - u_a13 - 859 y_a13_proc_1 >= 0
 c274: u_a14 - u_a11 - 1060 y_a11_proc_1 >= -1
 c275: u_a11 - u_a14 - 977 y_a14_proc_1 >= 0
 c276: u_a13 - u_a12 - 581 y_a12_proc_1 >= -1
 c277: u_a12 - u_a13 - 859 y_a13_proc_1 >= 0
 c278: u_a14 - u_a12 - 581 y_a12_proc_1 >= -1
 c279: u_a12 - u_a14 - 977 y_a14_proc_1 >= 0
 c280: u_a14 - u_a13 - 859 y_a13_proc_1 >= -1
 c281: u_a13 - u_a14 - 977 y_a14_proc_1 >= 0

Bounds
End
